Route #1: 74 13 31 17 69 105 64 94 57
Route #2: 82 63 40 2 83 77 85 54 21
Route #3: 5 44 15 76 51 100 45 96
Route #4: 29 72 34 11 99 49 71
Route #5: 60 87 43 97 93 101 103 53
Route #6: 14 58 88 91 36 8 48 67
Route #7: 7 75 84 9 12 104 1
Route #8: 52 92 102 24 90 26 62
Route #9: 78 19 27 37 79 46 66 28
Route #10: 22 33
Route #11: 56 20 16 10 41 18 86
Route #12: 59 89 30 42 23 3 32 73 35
Route #13: 39 50 81 6 70 4 98 55
Route #14: 68 95 38 65 80 61 47 25
Cost 26374
